(set-info :smt-lib-version 2.6)
(set-logic QF_SLIA)
(set-info :source |
Generated by: Joel Day, Thorsten Ehlers, Mitja Kulczynski, Federico Mora, Florin Manea, Dirk Nowotka, Danny Poulsen, Zhengyang Lu
Application: Test WOORPJE
Target solver: WOORPJE
Publications: Day, J. D., Ehlers, T., Kulczynski, M., Manea, F., Nowotka, D., & Poulsen, D. B. (2019). On solving word equations using SAT. In RP 2019
Description: Enriches a system of 30 word equations by suitable linear constraints
|)
(set-info :license "https://creativecommons.org/licenses/by/4.0/")
(set-info :category "random")
(set-info :status unknown)

(declare-fun H () String)
(declare-fun E () String)
(declare-fun A () String)
(declare-fun C () String)
(assert (= (str.++  "bce" A "aacee" C "ba" A A A A "ebcf" A "df")  (str.++  "bcedaac" H A "edebe" E "ddf") ))
(assert (= (str.++  "ef" A "cbecfcefac" A "ceaa" A "faebccbbf" A "bffb" A "fafecf")  (str.++  "ef" A "cbecfcefacdceaadfaebccbbf" A "bffb" A "fafecf") ))
(assert (= (str.++  "dacafefecfbca" A "fccea" A "ec" A A "fdecfdeceaeffbbd")  (str.++  A "acafefecfbcadfccea" A "ecd" A "fdecf" A "eceaeffbb" A) ))
(assert (>=(* (str.len E) 6) 102))
(assert (>=(* (str.len H) 17) 17))
(check-sat)

(exit)
